This is Ipopt version 3.14.16, running with linear solver MUMPS 5.7.3.

Number of nonzeros in equality constraint Jacobian...:        0
Number of nonzeros in inequality constraint Jacobian.:      360
Number of nonzeros in Lagrangian Hessian.............:        0

Total number of variables............................:       15
                     variables with only lower bounds:        0
                variables with lower and upper bounds:       15
                     variables with only upper bounds:        0
Total number of equality constraints.................:        0
Total number of inequality constraints...............:       24
        inequality constraints with only lower bounds:        0
   inequality constraints with lower and upper bounds:        0
        inequality constraints with only upper bounds:       24

iter    objective    inf_pr   inf_du lg(mu)  ||d||  lg(rg) alpha_du alpha_pr  ls
   0  1.0077452e-02 0.00e+00 1.00e+00   0.0 0.00e+00    -  0.00e+00 0.00e+00   0
   1  1.0321030e-02 0.00e+00 1.17e+00  -1.4 2.85e-01    -  7.84e-01 6.54e-01h  1
   2  1.0455053e-02 0.00e+00 7.91e-01  -6.0 8.66e-02    -  8.04e-01 1.00e+00h  1
   3  1.0452151e-02 0.00e+00 4.57e-02  -6.7 9.34e-04    -  9.84e-01 1.00e+00h  1
   4  1.0416255e-02 0.00e+00 2.95e-03  -4.6 1.07e-01    -  9.39e-01 1.00e+00h  1
   5  1.0333576e-02 0.00e+00 1.08e-03  -4.7 1.24e+00    -  7.28e-01 1.00e+00h  1
   6  1.0499333e-02 5.26e-04 2.84e-03  -4.2 3.05e+00    -  5.97e-01 4.80e-01H  1
   7  1.0810378e-02 0.00e+00 2.09e-02  -4.2 1.75e+00    -  6.45e-01 1.00e+00f  1
   8  1.0956383e-02 0.00e+00 1.57e-02  -4.2 5.81e+00    -  5.89e-01 9.10e-01h  1
   9  1.0314926e-02 0.00e+00 2.27e-02  -4.2 8.00e+01    -  6.84e-01 1.91e-01h  2
iter    objective    inf_pr   inf_du lg(mu)  ||d||  lg(rg) alpha_du alpha_pr  ls
  10  1.0436080e-02 0.00e+00 1.71e-02  -4.2 9.33e+00    -  1.00e+00 1.00e+00h  1
  11  1.0104678e-02 0.00e+00 8.10e-03  -4.2 8.82e+00    -  1.00e+00 1.00e+00h  1
  12  8.8706710e-03 5.50e-03 1.31e-02  -4.5 4.33e+00    -  5.43e-01 9.98e-01h  1
  13  1.0396194e-02 0.00e+00 2.62e-02  -2.9 6.53e+02    -  1.87e-02 3.68e-02f  1
  14  8.8115808e-03 3.12e-03 1.33e-02  -4.3 6.86e+00    -  3.15e-01 5.93e-01h  1
  15  9.0819695e-03 0.00e+00 1.52e-02  -4.0 6.71e+01    -  5.45e-01 1.00e+00h  1
  16  7.1438331e-03 1.35e-01 3.32e-02  -4.2 9.32e+01    -  2.09e-01 1.00e+00h  1
  17  7.5431085e-03 5.31e-03 2.61e-02  -3.8 2.84e+01    -  1.00e+00 5.41e-01h  1
  18  6.1648438e-03 1.47e-02 3.61e-02  -9.8 1.21e+02    -  2.59e-01 3.63e-01h  1
  19  8.6540533e-03 1.42e-02 3.87e-02  -3.7 2.83e+00    -  1.00e+00 8.70e-01h  1
iter    objective    inf_pr   inf_du lg(mu)  ||d||  lg(rg) alpha_du alpha_pr  ls
  20  8.0429658e-03 3.22e-03 2.67e-02  -3.8 2.19e+00    -  1.00e+00 1.00e+00h  1
  21  5.7172623e-03 4.00e-04 2.27e-02  -4.6 6.26e-01    -  1.00e+00 1.00e+00h  1
  22  4.4910730e-03 0.00e+00 2.04e-02  -4.1 2.10e-01    -  1.00e+00 9.53e-01h  1
  23  4.1127369e-03 0.00e+00 3.04e-02  -4.1 2.78e+01    -  1.00e+00 2.50e-01h  3
  24  3.4609330e-03 0.00e+00 4.75e-03  -5.0 1.92e+00    -  1.00e+00 1.00e+00h  1
  25 -6.0766688e-04 0.00e+00 3.16e+00  -5.3 4.94e+00    -  1.00e+00 1.00e+00h  1
  26  3.4360756e-03 0.00e+00 4.84e-03  -4.6 5.63e+00    -  1.00e+00 1.00e+00H  1
  27  3.3837131e-03 0.00e+00 2.42e-02  -5.6 4.71e-01    -  1.00e+00 1.00e+00h  1
  28  3.3786580e-03 0.00e+00 2.18e-02  -4.7 1.48e+00    -  1.00e+00 1.90e-01h  2
  29  3.3098346e-03 0.00e+00 1.45e-02  -5.3 8.36e-01    -  1.00e+00 1.00e+00h  1
iter    objective    inf_pr   inf_du lg(mu)  ||d||  lg(rg) alpha_du alpha_pr  ls
  30  3.2481726e-03 0.00e+00 6.48e-03  -6.0 1.93e-01    -  1.00e+00 1.00e+00h  1
  31  3.2319492e-03 0.00e+00 3.11e-04  -7.1 4.51e-01    -  1.00e+00 1.00e+00h  1

Number of Iterations....: 31

                                   (scaled)                 (unscaled)
Objective...............:   3.2319491710994341e-03    3.2319491710994341e-03
Dual infeasibility......:   3.1141897193280924e-04    3.1141897193280924e-04
Constraint violation....:   0.0000000000000000e+00    0.0000000000000000e+00
Variable bound violation:   0.0000000000000000e+00    0.0000000000000000e+00
Complementarity.........:   4.1713618949835044e-07    4.1713618949835044e-07
Overall NLP error.......:   3.1141897193280924e-04    3.1141897193280924e-04


Number of objective function evaluations             = 44
Number of objective gradient evaluations             = 32
Number of equality constraint evaluations            = 0
Number of inequality constraint evaluations          = 44
Number of equality constraint Jacobian evaluations   = 0
Number of inequality constraint Jacobian evaluations = 32
Number of Lagrangian Hessian evaluations             = 0
Total seconds in IPOPT                               = 6.465

EXIT: Optimal Solution Found.
